p cnf 22 10
e 1 2 3 4 0
a 5 6 7 8 9 10 0
e 11 0
a 12 0
e 13 14 15 0
a 16 17 18 0
e 19 20 0
a 21 0
e 22 0
-8 17 21 20 5 0
15 -19 -20 0
17 -10 4 14 7 0
-12 -15 13 -22 4 0
8 -2 -10 -4 0
-6 16 0
7 -3 11 0
-4 -8 3 0
16 -18 -4 -2 0
-14 21 -13 2 0
